(set-logic HORN)
(declare-fun inv ((_ BitVec 32) (_ BitVec 32) (_ BitVec 32) (_ BitVec 32) ) Bool)
(assert (forall ((i (_ BitVec 32)) (n (_ BitVec 32)) (a (_ BitVec 32)) (b (_ BitVec 32))) 
       (=> ( and ( = i (_ bv0 32) ) ( = a (_ bv0 32) ) ( = b (_ bv0 32) ) ( bvsge n (_ bv0 32) ) ) (inv i n a b))))
(assert (forall ((i (_ BitVec 32)) (n (_ BitVec 32)) (a (_ BitVec 32)) (b (_ BitVec 32)) (i! (_ BitVec 32)) (n! (_ BitVec 32)) (a! (_ BitVec 32)) (b! (_ BitVec 32))) 
       (=> (and (inv i n a b) ( let ( ( a!1 ( or ( and ( = a! ( bvadd a (_ bv1 32) ) ) ( = b! ( bvadd b (_ bv2 32) ) ) ) ( and ( = a! ( bvadd a (_ bv2 32) ) ) ( = b! ( bvadd b (_ bv1 32) ) ) ) ) ) ) ( and ( bvslt i n ) a!1 ( = i! ( bvadd i (_ bv1 32) ) ) ( = n! n ) ) )) (inv i! n! a! b!))))
(assert (forall ((i (_ BitVec 32)) (n (_ BitVec 32)) (a (_ BitVec 32)) (b (_ BitVec 32))) 
       (=> (inv i n a b) ( or ( bvslt i n ) ( = ( bvadd a b ) ( bvmul (_ bv3 32) n ) ) ))))
(check-sat)
